874.37 0
0 17 18 19 16 14 12 15 13 10 0
0 20 21 22 23 26 28 30 29 27 25 24 0
0 34 33 32 31 35 37 38 39 36 0
0 47 49 52 50 51 48 45 46 44 40 41 42 43 0
0 54 55 57 59 53 56 58 60 0
0 63 62 74 72 61 64 68 69 66 65 67 0
0 75 1 2 4 6 9 11 8 7 3 5 0
0 80 79 77 73 70 71 76 78 81 0
0 85 84 82 83 86 87 88 89 91 90 0
0 95 96 98 99 100 97 93 92 94 0
